Optimize a model with 2501 rows, 2600 columns and 16758 nonzeros
Model has 1 quadratic constraint
Coefficient statistics:
  Matrix range    [1e+00, 5e+01]
  Objective range [1e+02, 7e+02]
  Bounds range    [1e+00, 5e+01]
  RHS range       [1e+00, 5e+01]
Presolve removed 0 rows and 52 columns
Presolve time: 0.32s
Presolved: 4903 rows, 4949 columns, 26362 nonzeros
Variable types: 0 continuous, 4949 integer (4900 binary)

Root relaxation: objective 3.310000e+02, 84 iterations, 0.04 seconds

    Nodes    |    Current Node    |     Objective Bounds      |     Work
 Expl Unexpl |  Obj  Depth IntInf | Incumbent    BestBd   Gap | It/Node Time

     0     0  331.00000    0   40          -  331.00000      -     -    0s
     0     0  331.00000    0   40          -  331.00000      -     -    0s
     0     0  331.00000    0   40          -  331.00000      -     -    0s
     0     0  331.00000    0   42          -  331.00000      -     -    0s
     0     0  331.00000    0   40          -  331.00000      -     -    0s
     0     0  331.00000    0   41          -  331.00000      -     -    0s
     0     0  331.00000    0   41          -  331.00000      -     -    1s
H    0     0                    2812.0000000  331.00000  88.2%     -    1s
     0     2  331.00000    0   41 2812.00000  331.00000  88.2%     -    1s
   687   689  331.00000  687   42 2812.00000  331.00000  88.2%   1.6    5s
H 1053  1053                    2782.0000000  331.00000  88.1%   1.4    7s
H 1134  1134                    2772.0000000  331.00000  88.1%   1.4    8s
  1392  1394  331.00000 1392   43 2772.00000  331.00000  88.1%   1.3   10s
  2250  2241 1089.00000 1106   41 2772.00000  475.00000  82.9%   1.7   15s
H 2251  2129                    2749.0000000 2729.79070  0.70%   1.7   15s
* 2273  2023              27    2745.0000000 2731.71061  0.48%   1.9   15s

Explored 2308 nodes (6335 simplex iterations) in 15.44 seconds
Thread count was 1 (of 4 available processors)

Optimal solution found (tolerance 1.00e-04)
Best objective 2.745000000000e+03, best bound 2.745000000000e+03, gap 0.0%
2745
(0,3) (30,0) (3,31) (4,21) (41,4) (18,9) (9,42) (10,27) (38,10) (13,18) (25,13) (35,14) (14,37) (16,33) (37,16) (21,25) (23,35) (39,23) (27,26) (26,30) (31,43) (33,41) (42,38) (43,39) 
